fitness = 1.0
4 8 1 4 8 1 4 8 1 4 8 1 4 8 1 4 8 1 4 8 1 4 8 1 4 8 1 5 8 1 5 8 1 5 8 4 8 4 8 4 8 4 8 4 8 4 8 4 8 4 8 4 8 4 8 4 8 4 8 4 8 4 8 4 8 4 8 4 8 4 8 4 8 4 8 4 8 4 8 4 8 3 5 2 5 2 5 2 5 2 5 2 5 2 5 2 5 2 5 2 5 2 5 2 5 2 5 2 5 2 5 2 5 2 5 2 5 2 5 